language Essence 1.3

letting bot_end be
        [351, 103, 26, 335, 356, 4, 28, 326, 330, 6, 62, 69, 15, 27, 125, 357, 3, 336, 66, 29, 340; int(1..21)]
letting bot_start be
        [130, 326, 224, 15, 112, 202, 215, 34, 40, 247, 320, 270, 207, 196, 361, 173, 197, 137, 315, 249, 77;
             int(1..21)]
letting buffer_col be 2
letting buffer_row be 2
letting corridor_size be 1
letting n_shelves_col be 1
letting n_shelves_row be 24
letting shelf_col_size be 2
letting shelf_row_size be 1
